POSCAR generated by DeepH-dock 
1.0
  3.196223 0.0 0.0
  -1.5981115 2.7680103141601093 0.0
  0.0 0.0 23.12983
Mo S
1 2
Cartesian
  0.0000000000000000 0.0000000000000000 11.5649149999999992
  -1.5981114998401886 0.9226701046277692 9.7559130030052437
  -1.5981114998401886 0.9226701046277692 -9.7559130030052437
