# geometry.in generated by poscar_to_aims.py
lattice_vector  30.0   0.0    0.0
lattice_vector  0.0   30.0    0.0
lattice_vector  0.0   0.0    30.0
atom 5.048670000000 4.917220000000 4.997720000000  O
atom 5.207390000000 5.935680000000 4.968880000000  H
atom 4.020060000000 5.378220000000 5.067250000000  H
