POSCAR generated by aimspy
1.0
  3.1962230054541072  0.0000000000000000  0.0000000000000000
  -1.5981115027270536  2.7680103188835048  0.0000000000000000
  0.0000000000000000  0.0000000000000000  23.1298300394692653
Mo  S
1  2
Cartesian
  0.0000000000000000  0.0000000000000000  11.5649150197346327
  -1.5981115025672428  0.9226701062022344  9.7559130196529562
  -1.5981115025672428  0.9226701062022344  -9.7559130196529580
