#===============================================================================
# Created using the Atomic Simulation Environment (ASE)

# Sun Jan 18 17:31:22 2026

#=======================================================
lattice_vector 3.1962229999999998 0.0000000000000000 0.0000000000000000 
lattice_vector -1.5981114999999999 2.7680103141601093 0.0000000000000000 
lattice_vector 0.0000000000000000 0.0000000000000000 23.1298299999999983 

atom 1.5981115001598112 0.9226701046277692 9.7559130030052437 S
atom 0.0000000000000000 0.0000000000000000 11.5649149999999992 Mo
atom 1.5981115001598112 0.9226701046277692 13.3739169969947547 S
